(set-logic LIA)

(declare-const tmp Int)
(declare-const tmp! Int)
(declare-const n Int)
(declare-const n! Int)
(declare-const c Int)
(declare-const c! Int)

(declare-const n_0 Int)
(declare-const c_33 Int)
(declare-const c_28 Int)
(declare-const c_27 Int)
(declare-const c_24 Int)

(define-fun inv-f((c Int)(n Int)(tmp Int)) Bool
